# Solution for model GasLib-40
# Objective value = 1.0199916491588702e+01
loadshed[innode_1] 0
loadshed[innode_2] 0
loadshed[innode_3] 0
loadshed[innode_4] 0
loadshed[innode_5] 0
loadshed[innode_6] 0
loadshed[innode_7] 0
loadshed[innode_8] 0
loadshed[source_1] -2.2981637244663577e-01
loadshed[source_2] 0.102124011092397
loadshed[source_3] 1.9221192976123980e-01
loadshed[sink_1] 0
loadshed[sink_2] 0
loadshed[sink_3] 0
loadshed[sink_4] 0
loadshed[sink_5] 0
loadshed[sink_6] 0
loadshed[sink_7] 0
loadshed[sink_8] 0
loadshed[sink_9] 0
loadshed[sink_10] 0
loadshed[sink_11] 0
loadshed[sink_12] 0.623689161269118
loadshed[sink_13] 0
loadshed[sink_14] 0
loadshed[sink_15] 0
loadshed[sink_16] 0
loadshed[sink_17] 0
loadshed[sink_18] 0
loadshed[sink_19] 0
loadshed[sink_20] 0
loadshed[sink_21] 0
loadshed[sink_22] 0
loadshed[sink_23] 0
loadshed[sink_24] 0
loadshed[sink_25] 0
loadshed[sink_26] 0
loadshed[sink_27] 0
loadshed[sink_28] 0
loadshed[sink_29] 0
flow[source_1,sink_3] 1.9442201193574766e+02
flow[innode_1,sink_16] 1.6354166666666970e+01
flow[innode_6,sink_13] -13.2242737429534
flow[sink_13,sink_14] -2.9578440409620068e+01
flow[sink_14,sink_10] -4.5932607076286736e+01
flow[sink_25,sink_26] 1.7183970309909307e+02
flow[sink_26,sink_9] 1.2209733173130957e+02
flow[sink_9,sink_18] 1.0574316506464289e+02
flow[sink_26,sink_4] 3.3388204701116841e+01
flow[sink_4,sink_20] -1.7223157367619255e+01
flow[sink_18,sink_6] 8.9388998397976223e+01
flow[sink_25,innode_8] -1.6171367860241131e+02
flow[sink_6,sink_7] 4.0326498397975229e+01
flow[sink_6,sink_22] 3.2708333333333641e+01
flow[sink_7,sink_24] 3.8862583508411305e+01
flow[sink_22,sink_1] 1.6354166666666970e+01
flow[sink_24,sink_21] 2.2508416841744634e+01
flow[sink_21,sink_12] 6.1542501750779666e+00
flow[sink_7,sink_5] -1.4890251777102208e+01
flow[sink_5,sink_17] -3.1244418443768836e+01
flow[sink_17,sink_4] -3.4257195402069428e+01
flow[sink_17,sink_8] -1.3341389708366126e+01
flow[sink_3,sink_23] 16.3541666666697
flow[sink_8,sink_20] -2.9695556375032794e+01
flow[sink_25,sink_20] 63.2728804093187
flow[sink_25,sink_15] -7.6528797829714520e+01
flow[sink_15,sink_29] -9.2882964496381192e+01
flow[sink_29,sink_28] 1.6354166666667879e+01
flow[sink_29,sink_2] 1.6354166666684250e+01
flow[sink_2,sink_15] 0
flow[sink_29,innode_7] -1.4194546449639986e+02
flow[innode_4,sink_19] 4.9856383029442739e+01
flow[sink_19,innode_3] 46.3572112790991
flow[innode_4,innode_5] 7.7847057380177930e+01
flow[sink_27,innode_5] -7.7847057380177930e+01
flow[sink_27,sink_19] 6.1492890713511265e+01
flow[sink_10,sink_11] 3.2708333333333641e+01
flow[sink_10,innode_2] -4.8637895797187944e+01
flow[sink_10,innode_3] -46.3572112790991
flow[innode_6,sink_25] 13.2242737429534
flow[sink_11,innode_1] 1.6354166666666970e+01
flow[sink_19,innode_2] 4.8637895797187944e+01
flow[source_3,innode_4] 1.2770344040962067e+02
flow[source_2,innode_7] 1.4194546449639986e+02
flow[sink_3,innode_8] 1.6171367860241131e+02
pressure[innode_1] 7.6271025907115614e+01
pressure[innode_2] 7.8993440888689278e+01
pressure[innode_3] 7.8890788093696429e+01
pressure[innode_4] 81.01325
pressure[innode_5] 8.0959702689045869e+01
pressure[innode_6] 7.4124343046294769e+01
pressure[innode_7] 81.01325
pressure[innode_8] 8.0363371485999409e+01
pressure[source_1] 81.01325
pressure[source_2] 81.01325
pressure[source_3] 81.01325
pressure[sink_1] 4.6399800349718134e+01
pressure[sink_2] 7.6802495396975942e+01
pressure[sink_3] 8.0363371485999409e+01
pressure[sink_4] 5.7776710914655538e+01
pressure[sink_5] 5.4140030533080939e+01
pressure[sink_6] 4.8500877960105505e+01
pressure[sink_7] 4.7947291260925020e+01
pressure[sink_8] 5.6970919159773359e+01
pressure[sink_9] 5.4713933244229374e+01
pressure[sink_10] 7.6422727214719160e+01
pressure[sink_11] 7.6271025907115614e+01
pressure[sink_12] 1.0132499999999998e+00
pressure[sink_13] 7.4197246257458232e+01
pressure[sink_14] 7.4250179396097266e+01
pressure[sink_15] 7.4495582287100461e+01
pressure[sink_16] 7.5249376072297935e+01
pressure[sink_17] 5.6467513865998548e+01
pressure[sink_18] 5.0887830363355732e+01
pressure[sink_19] 7.8993440888689278e+01
pressure[sink_20] 5.9040281822455114e+01
pressure[sink_21] 3.2032690357168230e+00
pressure[sink_22] 4.7463569492073141e+01
pressure[sink_23] 8.0198653474339622e+01
pressure[sink_24] 3.4525288394257876e+00
pressure[sink_25] 7.4124343046294769e+01
pressure[sink_26] 6.2021773672886908e+01
pressure[sink_27] 8.0313715958685535e+01
pressure[sink_28] 7.6921482621822420e+01
pressure[sink_29] 77.2167648954396
interdiction[source_1,sink_3] 0
interdiction[innode_1,sink_16] 0
interdiction[innode_6,sink_13] 0
interdiction[sink_13,sink_14] 0
interdiction[sink_14,sink_10] 0
interdiction[sink_25,sink_26] 0
interdiction[sink_26,sink_9] 0
interdiction[sink_9,sink_18] 0
interdiction[sink_26,sink_4] 0
interdiction[sink_4,sink_20] 0
interdiction[sink_18,sink_6] 0
interdiction[sink_25,innode_8] 0
interdiction[sink_6,sink_7] 0
interdiction[sink_6,sink_22] 0
interdiction[sink_7,sink_24] 0
interdiction[sink_22,sink_1] 0
interdiction[sink_24,sink_21] 0
interdiction[sink_21,sink_12] 0
interdiction[sink_7,sink_5] 0
interdiction[sink_5,sink_17] 0
interdiction[sink_17,sink_4] 0
interdiction[sink_17,sink_8] 0
interdiction[sink_3,sink_23] 0
interdiction[sink_8,sink_20] 0
interdiction[sink_25,sink_20] 0
interdiction[sink_25,sink_15] 0
interdiction[sink_15,sink_29] 0
interdiction[sink_29,sink_28] 0
interdiction[sink_29,sink_2] 0
interdiction[sink_2,sink_15] 1
interdiction[sink_29,innode_7] 0
interdiction[innode_4,sink_19] 0
interdiction[sink_19,innode_3] 0
interdiction[innode_4,innode_5] 0
interdiction[sink_27,innode_5] 0
interdiction[sink_27,sink_19] 0
interdiction[sink_10,sink_11] 0
interdiction[sink_10,innode_2] 0
interdiction[sink_10,innode_3] 0
interdiction[innode_6,sink_25] 0
interdiction[sink_11,innode_1] 0
interdiction[sink_19,innode_2] 0
interdiction[source_3,innode_4] 0
interdiction[source_2,innode_7] 0
interdiction[sink_3,innode_8] 0
WCcheckFlow[source_1,sink_3] 39
WCcheckFlow[innode_1,sink_16] 1
WCcheckFlow[innode_6,sink_13] 13
WCcheckFlow[sink_13,sink_14] 12
WCcheckFlow[sink_14,sink_10] 11
WCcheckFlow[sink_25,sink_26] 15
WCcheckFlow[sink_26,sink_9] 12
WCcheckFlow[sink_9,sink_18] 11
WCcheckFlow[sink_26,sink_4] 2
WCcheckFlow[sink_4,sink_20] 1
WCcheckFlow[sink_18,sink_6] 10
WCcheckFlow[sink_25,innode_8] -36
WCcheckFlow[sink_6,sink_7] 7
WCcheckFlow[sink_6,sink_22] 2
WCcheckFlow[sink_7,sink_24] 3
WCcheckFlow[sink_22,sink_1] 1
WCcheckFlow[sink_24,sink_21] 2
WCcheckFlow[sink_21,sink_12] 1
WCcheckFlow[sink_7,sink_5] 3
WCcheckFlow[sink_5,sink_17] 2
WCcheckFlow[sink_17,sink_4] 0
WCcheckFlow[sink_17,sink_8] 1
WCcheckFlow[sink_3,sink_23] 1
WCcheckFlow[sink_8,sink_20] 0
WCcheckFlow[sink_25,sink_20] 0
WCcheckFlow[sink_25,sink_15] 6
WCcheckFlow[sink_15,sink_29] 5
WCcheckFlow[sink_29,sink_28] 1
WCcheckFlow[sink_29,sink_2] 1
WCcheckFlow[sink_2,sink_15] 0
WCcheckFlow[sink_29,innode_7] 2
WCcheckFlow[innode_4,sink_19] -4
WCcheckFlow[sink_19,innode_3] -5
WCcheckFlow[innode_4,innode_5] 2
WCcheckFlow[sink_27,innode_5] -1
WCcheckFlow[sink_27,sink_19] 0
WCcheckFlow[sink_10,sink_11] 3
WCcheckFlow[sink_10,innode_2] 1
WCcheckFlow[sink_10,innode_3] 6
WCcheckFlow[innode_6,sink_25] -14
WCcheckFlow[sink_11,innode_1] 2
WCcheckFlow[sink_19,innode_2] 0
WCcheckFlow[source_3,innode_4] -1
WCcheckFlow[source_2,innode_7] -1
WCcheckFlow[sink_3,innode_8] 37
